param set_len = 22;
param target_sum = 6103576682;
param values := [1] 589951151 [2] 841186313 [3] 63785769 [4] 841913782 [5] 413700443 [6] 107130674 [7] 789789071 [8] 1002801475 [9] 835170507 [10] 318088324 [11] 449830272 [12] 371240858 [13] 213304012 [14] 1059629944 [15] 658689655 [16] 934759303 [17] 70708200 [18] 230755869 [19] 214746675 [20] 260968530 [21] 516460038 [22] 788372846 ;
